Solving original (integer) problem with strategy gdp.hull...
--- Job model.gms Start 02/16/26 02:49:57 52.2.0 d8e408be LEX-LEG x86 64bit/Linux
--- Applying:
    /package/gams/52.2/gmsprmun.txt
--- GAMS Parameters defined
    Input /local/scratch/a/sgusev/repos/k_means/data/gams_scip_gdp.hull/no_mode/2026-02-16_02-49-57/original/model.gms
    Output /local/scratch/a/sgusev/repos/k_means/data/gams_scip_gdp.hull/no_mode/2026-02-16_02-49-57/original/output.lst
    ScrDir /local/scratch/a/sgusev/repos/k_means/data/gams_scip_gdp.hull/no_mode/2026-02-16_02-49-57/original/225a/
    SysDir /package/gams/52.2/
    CurDir /local/scratch/a/sgusev/repos/k_means/data/gams_scip_gdp.hull/no_mode/2026-02-16_02-49-57/original/
    LogOption 3
    AppendLog 1
Licensee: David Bernal / SECQUOIA Research Group         G251008+0003Ac-GEN
          Purdue University, Davidson School of Chemical EngineeringDCE4838
          225a/gamslice.dat
          5a82958a-fbca-4a23
          node:66820903 mem:995 cores:48 ipport:47949 v:2                  
          Evaluation license: Not for commercial or production use
          The time-limited license stops working on : Jun 30, 2027
System information: 48 physical cores and 995 Gb physical memory detected
GAMS 52.2.0   Copyright (C) 1987-2025 GAMS Development. All rights reserved
--- Starting compilation
--- model.gms(3284) 2 Mb
--- $echo File /local/scratch/a/sgusev/repos/k_means/data/gams_scip_gdp.hull/no_mode/2026-02-16_02-49-57/original/scip.opt
--- model.gms(4810) 2 Mb
--- Starting execution: elapsed 0:00:00.018
--- model.gms(3294) 3 Mb
--- Generating MINLP model GAMS_MODEL
--- model.gms(3298) 6 Mb
---   999 rows  460 columns  2,405 non-zeroes
---   2,088 nl-code  252 nl-non-zeroes
---   36 discrete-columns
--- Range statistics (absolute non-zero finite values)
--- RHS       [min, max] : [ 1.025E-04, 1.000E+00] - Zero values observed as well
--- Bound     [min, max] : [ 1.000E+00, 1.200E+02] - Zero values observed as well
--- Matrix    [min, max] : [ 1.669E-03, 1.200E+02]
--- model.gms(3298) 4 Mb
--- Executing SCIP (Solvelink=5): elapsed 0:00:00.023

SCIP             52.2.0 d8e408be Dec 8, 2025           LEG x86 64bit/Linux    
SCIP version 9.2.4 (a94f778ac8)
Copyright (c) 2002-2025 Zuse Institute Berlin (ZIB)

External libraries: 
  CPLEX 22.1.2.0       Linear Programming Solver developed by IBM (www.cplex.com)
  CppAD 20180000.0     Algorithmic Differentiation of C++ algorithms developed by B. Bell (github.com/coin-or/CppAD)
  PaPILO 2.4.4         parallel presolve for integer and linear optimization (github.com/scipopt/papilo) (built with TBB) [GitHash: 7c826d50]
  Nauty 2.8.9          Computing Graph Automorphism Groups by Brendan D. McKay (users.cecs.anu.edu.au/~bdm/nauty)
  sassy 1.1            Symmetry preprocessor by Markus Anders (github.com/markusa4/sassy)
  Ipopt 3.14.19        Interior Point Optimizer developed by A. Waechter et.al. (github.com/coin-or/Ipopt)

reading option file /local/scratch/a/sgusev/repos/k_means/data/gams_scip_gdp.hull/no_mode/2026-02-16_02-49-57/original/scip.opt
non-default parameter settings:
limits/time = 300
limits/gap = 1e-06
limits/absgap = 1e-10
lp/threads = 1
misc/printreason = FALSE
numerics/dualfeastol = 1e-06
parallel/maxnthreads = 1
nlpi/ipopt/linear_solver = "ma27"
nlpi/ipopt/linear_system_scaling = "mc19"

original problem has 459 variables (36 bin, 0 int, 423 cont) and 998 constraints

all 1 solutions given by solution candidate storage are infeasible

presolving:
(round 1, fast)       12 del vars, 0 del conss, 0 add conss, 0 chg bounds, 0 chg sides, 0 chg coeffs, 0 upgd conss, 0 impls, 12 clqs
(round 2, fast)       12 del vars, 0 del conss, 0 add conss, 0 chg bounds, 12 chg sides, 0 chg coeffs, 0 upgd conss, 0 impls, 12 clqs
(round 3, exhaustive) 12 del vars, 0 del conss, 0 add conss, 0 chg bounds, 12 chg sides, 0 chg coeffs, 768 upgd conss, 0 impls, 12 clqs
   (0.1s) probing cycle finished: starting next cycle
   (0.1s) symmetry computation started: requiring (bin +, int +, cont +), (fixed: bin -, int -, cont -)
   (0.1s) no symmetry present (symcode time: 0.00)
presolving (4 rounds: 4 fast, 2 medium, 2 exhaustive):
 12 deleted vars, 0 deleted constraints, 0 added constraints, 0 tightened bounds, 0 added holes, 12 changed sides, 0 changed coefficients
 1548 implications, 12 cliques
presolved problem has 447 variables (36 bin, 0 int, 0 impl, 411 cont) and 998 constraints
    756 constraints of type <varbound>
     12 constraints of type <setppc>
    194 constraints of type <linear>
     36 constraints of type <nonlinear>
Presolving Time: 0.07

 time | node  | left  |LP iter|LP it/n|mem/heur|mdpt |vars |cons |rows |cuts |sepa|confs|strbr|  dualbound   | primalbound  |  gap   | compl. 
  0.1s|     1 |     0 |   780 |     - |    17M |   0 |1563 | 998 |2451 |   0 |  0 |   0 |   0 | 0.000000e+00 |      --      |    Inf | unknown
p 0.2s|     1 |     0 |   837 |     - |  clique|   0 |1563 | 998 |2451 |   0 |  0 |   0 |   0 | 0.000000e+00 | 2.040055e+01 |    Inf | unknown
  0.2s|     1 |     0 |  1098 |     - |    18M |   0 |1563 | 998 |2515 |  64 |  1 |   0 |   0 | 0.000000e+00 | 2.040055e+01 |    Inf | unknown
  0.2s|     1 |     0 |  1098 |     - |    18M |   0 |1563 | 998 |2503 |  64 |  1 |   0 |   0 | 0.000000e+00 | 2.040055e+01 |    Inf | unknown
  0.3s|     1 |     0 |  1321 |     - |    18M |   0 |1563 | 998 |2589 | 150 |  2 |   0 |   0 | 0.000000e+00 | 2.040055e+01 |    Inf | unknown
  0.3s|     1 |     0 |  1533 |     - |    20M |   0 |1563 | 998 |2653 | 214 |  3 |   0 |   0 | 0.000000e+00 | 2.040055e+01 |    Inf | unknown
  0.3s|     1 |     0 |  1665 |     - |    20M |   0 |1563 | 998 |2705 | 266 |  4 |   0 |   0 | 0.000000e+00 | 2.040055e+01 |    Inf | unknown
  0.4s|     1 |     0 |  1812 |     - |    21M |   0 |1563 | 998 |2759 | 320 |  5 |   0 |   0 | 0.000000e+00 | 2.040055e+01 |    Inf | unknown
  0.4s|     1 |     0 |  1925 |     - |    21M |   0 |1563 | 998 |2827 | 388 |  6 |   0 |   0 | 0.000000e+00 | 2.040055e+01 |    Inf | unknown
  0.4s|     1 |     0 |  2049 |     - |    21M |   0 |1563 | 998 |2884 | 445 |  7 |   0 |   0 | 0.000000e+00 | 2.040055e+01 |    Inf | unknown
  0.5s|     1 |     0 |  2155 |     - |    22M |   0 |1563 | 998 |2929 | 490 |  8 |   0 |   0 | 0.000000e+00 | 2.040055e+01 |    Inf | unknown
  0.5s|     1 |     0 |  2271 |     - |    22M |   0 |1563 | 998 |2966 | 527 |  9 |   0 |   0 | 0.000000e+00 | 2.040055e+01 |    Inf | unknown
  0.6s|     1 |     0 |  2406 |     - |    22M |   0 |1563 | 998 |3024 | 585 | 10 |   0 |   0 | 0.000000e+00 | 2.040055e+01 |    Inf | unknown
  0.6s|     1 |     0 |  2534 |     - |    23M |   0 |1563 | 998 |3070 | 631 | 11 |   0 |   0 | 0.000000e+00 | 2.040055e+01 |    Inf | unknown
  0.7s|     1 |     0 |  2634 |     - |    23M |   0 |1563 | 998 |3114 | 675 | 12 |   0 |   0 | 0.000000e+00 | 2.040055e+01 |    Inf | unknown
 time | node  | left  |LP iter|LP it/n|mem/heur|mdpt |vars |cons |rows |cuts |sepa|confs|strbr|  dualbound   | primalbound  |  gap   | compl. 
  0.7s|     1 |     0 |  2793 |     - |    23M |   0 |1563 | 998 |1890 | 727 | 13 |   0 |   0 | 0.000000e+00 | 2.040055e+01 |    Inf | unknown
  0.7s|     1 |     0 |  2918 |     - |    24M |   0 |1563 | 998 |1937 | 774 | 14 |   0 |   0 | 0.000000e+00 | 2.040055e+01 |    Inf | unknown
  0.8s|     1 |     0 |  3050 |     - |    24M |   0 |1563 | 998 |1997 | 834 | 15 |   0 |   0 | 0.000000e+00 | 2.040055e+01 |    Inf | unknown
  0.8s|     1 |     0 |  3145 |     - |    24M |   0 |1563 | 998 |2046 | 883 | 16 |   0 |   0 | 0.000000e+00 | 2.040055e+01 |    Inf | unknown
  2.5s|     1 |     0 | 22563 |     - |    24M |   0 |1563 | 986 |2046 | 883 | 16 |   0 |   0 | 0.000000e+00 | 2.040055e+01 |    Inf | unknown
  2.6s|     1 |     0 | 22624 |     - |    24M |   0 |1563 | 986 |2098 | 935 | 17 |   0 |   0 | 0.000000e+00 | 2.040055e+01 |    Inf | unknown
  2.6s|     1 |     0 | 22683 |     - |    25M |   0 |1563 | 986 |2145 | 982 | 18 |   0 |   0 | 0.000000e+00 | 2.040055e+01 |    Inf | unknown
  2.6s|     1 |     0 | 22723 |     - |    25M |   0 |1563 | 986 |2169 |1006 | 19 |   0 |   0 | 0.000000e+00 | 2.040055e+01 |    Inf | unknown
  2.6s|     1 |     0 | 22790 |     - |    25M |   0 |1563 | 986 |1852 |1030 | 20 |   0 |   0 | 0.000000e+00 | 2.040055e+01 |    Inf | unknown
  2.7s|     1 |     0 | 22868 |     - |    25M |   0 |1563 | 986 |1892 |1070 | 21 |   0 |   0 | 0.000000e+00 | 2.040055e+01 |    Inf | unknown
  2.7s|     1 |     0 | 22960 |     - |    25M |   0 |1563 | 986 |1934 |1112 | 22 |   0 |   0 | 0.000000e+00 | 2.040055e+01 |    Inf | unknown
  2.7s|     1 |     0 | 22988 |     - |    25M |   0 |1563 | 986 |1978 |1156 | 23 |   0 |   0 | 0.000000e+00 | 2.040055e+01 |    Inf | unknown
  2.7s|     1 |     0 | 23014 |     - |    25M |   0 |1563 | 986 |2013 |1191 | 24 |   0 |   0 | 0.000000e+00 | 2.040055e+01 |    Inf | unknown
  2.8s|     1 |     0 | 23034 |     - |    25M |   0 |1563 | 986 |2041 |1219 | 25 |   0 |   0 | 0.000000e+00 | 2.040055e+01 |    Inf | unknown
  2.8s|     1 |     0 | 23051 |     - |    25M |   0 |1563 | 986 |1832 |1244 | 26 |   0 |   0 | 0.000000e+00 | 2.040055e+01 |    Inf | unknown
 time | node  | left  |LP iter|LP it/n|mem/heur|mdpt |vars |cons |rows |cuts |sepa|confs|strbr|  dualbound   | primalbound  |  gap   | compl. 
  2.8s|     1 |     0 | 23068 |     - |    25M |   0 |1563 | 986 |1856 |1268 | 27 |   0 |   0 | 0.000000e+00 | 2.040055e+01 |    Inf | unknown
L 3.5s|     1 |     0 | 23162 |     - |    rens|   0 |1563 | 986 |1856 |1268 | 27 |   0 |   0 | 0.000000e+00 | 1.533983e+01 |    Inf | unknown
  3.9s|     1 |     0 | 23162 |     - |    28M |   0 |1563 | 986 |1856 |1268 | 27 |   0 |   0 | 0.000000e+00 | 1.533983e+01 |    Inf | unknown
  3.9s|     1 |     0 | 23177 |     - |    28M |   0 |1563 | 986 |1879 |1291 | 28 |   0 |   0 | 0.000000e+00 | 1.533983e+01 |    Inf | unknown
  3.9s|     1 |     0 | 23178 |     - |    28M |   0 |1563 | 986 |1880 |1292 | 29 |   0 |   0 | 0.000000e+00 | 1.533983e+01 |    Inf | unknown
  3.9s|     1 |     0 | 23203 |     - |    28M |   0 |1563 | 986 |1880 |1292 | 29 |   0 |   1 | 0.000000e+00 | 1.533983e+01 |    Inf | unknown
  3.9s|     1 |     0 | 23246 |     - |    28M |   0 |1563 | 986 |1731 |1321 | 30 |   0 |   1 | 0.000000e+00 | 1.533983e+01 |    Inf | unknown
  3.9s|     1 |     0 | 23251 |     - |    28M |   0 |1563 | 986 |1733 |1323 | 31 |   0 |   1 | 0.000000e+00 | 1.533983e+01 |    Inf | unknown
  3.9s|     1 |     0 | 23267 |     - |    28M |   0 |1563 | 986 |1733 |1323 | 31 |   0 |   2 | 0.000000e+00 | 1.533983e+01 |    Inf | unknown
  3.9s|     1 |     0 | 23287 |     - |    28M |   0 |1563 | 986 |1751 |1341 | 32 |   0 |   2 | 0.000000e+00 | 1.533983e+01 |    Inf | unknown
  3.9s|     1 |     0 | 23302 |     - |    28M |   0 |1563 | 986 |1751 |1341 | 33 |   0 |   3 | 0.000000e+00 | 1.533983e+01 |    Inf | unknown
  4.0s|     1 |     0 | 23386 |     - |    28M |   0 |1563 | 986 |1784 |1374 | 34 |   0 |   3 | 0.000000e+00 | 1.533983e+01 |    Inf | unknown
  4.0s|     1 |     0 | 23403 |     - |    28M |   0 |1563 | 986 |1621 |1388 | 35 |   0 |   3 | 0.000000e+00 | 1.533983e+01 |    Inf | unknown
  4.0s|     1 |     0 | 23406 |     - |    28M |   0 |1563 | 986 |1621 |1388 | 35 |   0 |   4 | 0.000000e+00 | 1.533983e+01 |    Inf | unknown
  4.0s|     1 |     0 | 23478 |     - |    28M |   0 |1563 | 986 |1676 |1443 | 36 |   0 |   4 | 0.000000e+00 | 1.533983e+01 |    Inf | unknown
 time | node  | left  |LP iter|LP it/n|mem/heur|mdpt |vars |cons |rows |cuts |sepa|confs|strbr|  dualbound   | primalbound  |  gap   | compl. 
  4.0s|     1 |     0 | 23489 |     - |    28M |   0 |1563 | 986 |1686 |1453 | 37 |   0 |   4 | 0.000000e+00 | 1.533983e+01 |    Inf | unknown
  4.0s|     1 |     0 | 23493 |     - |    28M |   0 |1563 | 986 |1686 |1453 | 37 |   0 |   5 | 0.000000e+00 | 1.533983e+01 |    Inf | unknown
  4.0s|     1 |     0 | 23546 |     - |    28M |   0 |1563 | 986 |1744 |1511 | 38 |   0 |   5 | 0.000000e+00 | 1.533983e+01 |    Inf | unknown
  4.0s|     1 |     0 | 23583 |     - |    28M |   0 |1563 | 986 |1663 |1515 | 39 |   0 |   5 | 0.000000e+00 | 1.533983e+01 |    Inf | unknown
  4.0s|     1 |     0 | 23588 |     - |    28M |   0 |1563 | 986 |1663 |1515 | 39 |   0 |   6 | 0.000000e+00 | 1.533983e+01 |    Inf | unknown
  4.0s|     1 |     0 | 23632 |     - |    28M |   0 |1563 | 986 |1717 |1569 | 40 |   0 |   6 | 0.000000e+00 | 1.533983e+01 |    Inf | unknown
  4.0s|     1 |     0 | 23645 |     - |    28M |   0 |1563 | 986 |1725 |1577 | 41 |   0 |   6 | 0.000000e+00 | 1.533983e+01 |    Inf | unknown
  4.1s|     1 |     0 | 23646 |     - |    28M |   0 |1563 | 986 |1725 |1577 | 41 |   0 |   7 | 0.000000e+00 | 1.533983e+01 |    Inf | unknown
  4.1s|     1 |     0 | 23721 |     - |    28M |   0 |1563 | 986 |1790 |1642 | 42 |   0 |   7 | 0.000000e+00 | 1.533983e+01 |    Inf | unknown
  4.1s|     1 |     0 | 23805 |     - |    28M |   0 |1563 | 986 |1664 |1651 | 43 |   0 |   7 | 0.000000e+00 | 1.533983e+01 |    Inf | unknown
  4.1s|     1 |     0 | 23808 |     - |    28M |   0 |1563 | 986 |1664 |1651 | 43 |   0 |   8 | 0.000000e+00 | 1.533983e+01 |    Inf | unknown
  4.1s|     1 |     0 | 23912 |     - |    28M |   0 |1563 | 986 |1719 |1706 | 44 |   0 |   8 | 0.000000e+00 | 1.533983e+01 |    Inf | unknown
  4.1s|     1 |     0 | 23935 |     - |    28M |   0 |1563 | 986 |1731 |1718 | 45 |   0 |   8 | 0.000000e+00 | 1.533983e+01 |    Inf | unknown
  4.1s|     1 |     0 | 23940 |     - |    28M |   0 |1563 | 986 |1731 |1718 | 45 |   0 |   9 | 0.000000e+00 | 1.533983e+01 |    Inf | unknown
  4.1s|     1 |     0 | 23992 |     - |    28M |   0 |1563 | 986 |1784 |1771 | 46 |   0 |   9 | 0.000000e+00 | 1.533983e+01 |    Inf | unknown
 time | node  | left  |LP iter|LP it/n|mem/heur|mdpt |vars |cons |rows |cuts |sepa|confs|strbr|  dualbound   | primalbound  |  gap   | compl. 
  4.1s|     1 |     0 | 24000 |     - |    28M |   0 |1563 | 986 |1672 |1776 | 47 |   0 |   9 | 0.000000e+00 | 1.533983e+01 |    Inf | unknown
  4.1s|     1 |     0 | 24003 |     - |    28M |   0 |1563 | 986 |1672 |1776 | 47 |   0 |  10 | 0.000000e+00 | 1.533983e+01 |    Inf | unknown
  4.2s|     1 |     0 | 24034 |     - |    28M |   0 |1563 | 986 |1714 |1818 | 48 |   0 |  10 | 0.000000e+00 | 1.533983e+01 |    Inf | unknown
  4.2s|     1 |     0 | 24040 |     - |    28M |   0 |1563 | 986 |1720 |1824 | 49 |   0 |  10 | 0.000000e+00 | 1.533983e+01 |    Inf | unknown
  4.2s|     1 |     0 | 24040 |     - |    28M |   0 |1563 | 986 |1720 |1824 | 49 |   0 |  11 | 0.000000e+00 | 1.533983e+01 |    Inf | unknown
  4.2s|     1 |     0 | 24074 |     - |    28M |   0 |1563 | 986 |1764 |1868 | 50 |   0 |  11 | 0.000000e+00 | 1.533983e+01 |    Inf | unknown
  4.2s|     1 |     0 | 24078 |     - |    28M |   0 |1563 | 986 |1765 |1869 | 51 |   0 |  11 | 0.000000e+00 | 1.533983e+01 |    Inf | unknown
  4.2s|     1 |     2 | 24078 |     - |    28M |   0 |1563 | 986 |1765 |1869 | 51 |   0 |  11 | 0.000000e+00 | 1.533983e+01 |    Inf | unknown
d 6.5s|    49 |    50 | 37081 | 681.6 |nlpdivin|  11 |1563 | 986 |2216 |   0 | 11 |   0 |  30 | 0.000000e+00 | 1.346905e+01 |    Inf | unknown
  8.9s|   100 |   101 | 54629 | 507.7 |    37M |  11 |1563 | 986 |2103 |  22k| 14 |   0 |  42 | 0.000000e+00 | 1.346905e+01 |    Inf | unknown
L11.2s|   149 |   150 | 68734 | 434.9 |    gins|  12 |1563 | 986 |2149 |  33k|  7 |   0 |  49 | 0.000000e+00 | 1.323834e+01 |    Inf | unknown
d12.9s|   186 |   187 | 80783 | 413.1 |nlpdivin|  12 |1563 | 986 |2242 |   0 | 11 |   0 |  64 | 0.000000e+00 | 1.227563e+01 |    Inf | unknown
 13.5s|   200 |   201 | 85326 | 406.8 |    48M |  12 |1563 | 986 |1862 |  43k|  2 |   0 |  65 | 0.000000e+00 | 1.227563e+01 |    Inf | unknown
 18.3s|   300 |   301 |120302 | 387.7 |    64M |  15 |1563 | 986 |2168 |  67k| 11 |   0 |  81 | 0.000000e+00 | 1.227563e+01 |    Inf | unknown
 23.3s|   400 |   401 |154620 | 376.6 |    78M |  20 |1563 | 986 |2362 |  90k| 11 |   0 | 111 | 0.000000e+00 | 1.227563e+01 |    Inf | unknown
 time | node  | left  |LP iter|LP it/n|mem/heur|mdpt |vars |cons |rows |cuts |sepa|confs|strbr|  dualbound   | primalbound  |  gap   | compl. 
 28.2s|   500 |   501 |194156 | 380.3 |    92M |  20 |1563 | 986 |2381 | 113k|  9 |   0 | 144 | 0.000000e+00 | 1.227563e+01 |    Inf | unknown
 32.5s|   600 |   601 |237510 | 389.2 |   103M |  20 |1563 | 986 |2690 | 134k| 11 |   0 | 173 | 7.690351e-01 | 1.227563e+01 |1496.24%| unknown
L35.7s|   686 |   687 |259856 | 373.0 |    gins|  20 |1563 | 986 |1970 | 148k|  2 |   0 | 199 | 1.217808e+00 | 1.170846e+01 | 861.44%| unknown
 36.4s|   700 |   701 |262433 | 369.2 |   108M |  20 |1563 | 986 |2215 | 150k|  8 |   0 | 199 | 1.217808e+00 | 1.170846e+01 | 861.44%| unknown
 40.7s|   800 |   801 |284797 | 351.0 |   115M |  20 |1563 | 986 |1916 | 166k|  2 |   0 | 236 | 1.432480e+00 | 1.170846e+01 | 717.36%| unknown
 45.4s|   900 |   901 |308985 | 338.8 |   121M |  20 |1563 | 986 |2058 | 185k|  9 |   0 | 286 | 1.603328e+00 | 1.170846e+01 | 630.26%| unknown
 49.8s|  1000 |   999 |337721 | 333.7 |   129M |  20 |1563 | 986 |1946 | 206k|  3 |   0 | 321 | 1.744861e+00 | 1.170846e+01 | 571.03%| unknown
 53.6s|  1100 |  1097 |369191 | 332.0 |   136M |  21 |1563 | 986 |2207 | 221k|  0 |   0 | 349 | 2.093631e+00 | 1.170846e+01 | 459.24%| unknown
 57.7s|  1200 |  1185 |401994 | 331.6 |   142M |  27 |1563 | 986 |1862 | 235k|  2 |   0 | 381 | 2.113244e+00 | 1.170846e+01 | 454.05%| unknown
 60.8s|  1300 |  1275 |457884 | 349.1 |   147M |  29 |1563 | 986 |2145 | 245k|  0 |   0 | 425 | 2.113244e+00 | 1.170846e+01 | 454.05%| unknown
L64.3s|  1395 |  1359 |502556 | 357.4 |crossove|  30 |1563 | 986 |2360 | 255k|  0 |   0 | 445 | 2.174557e+00 | 1.096586e+01 | 404.28%| unknown
 64.4s|  1400 |  1362 |505802 | 358.4 |   152M |  35 |1563 | 986 |2416 | 255k|  1 |   0 | 445 | 2.174557e+00 | 1.096586e+01 | 404.28%| unknown
 67.6s|  1500 |  1454 |544410 | 360.3 |   156M |  35 |1563 | 986 |2314 | 267k|  0 |   0 | 479 | 2.174557e+00 | 1.096586e+01 | 404.28%| unknown
 69.7s|  1600 |  1526 |616911 | 383.1 |   157M |  36 |1563 | 986 |2109 | 270k|  2 |   0 | 484 | 2.174557e+00 | 1.096586e+01 | 404.28%| unknown
 73.0s|  1700 |  1602 |646521 | 378.0 |   161M |  37 |1563 | 986 |2148 | 284k|  9 |   0 | 502 | 2.174557e+00 | 1.096586e+01 | 404.28%| unknown
 time | node  | left  |LP iter|LP it/n|mem/heur|mdpt |vars |cons |rows |cuts |sepa|confs|strbr|  dualbound   | primalbound  |  gap   | compl. 
 77.1s|  1800 |  1690 |667751 | 368.8 |   166M |  37 |1563 | 986 |2051 | 301k|  2 |   0 | 532 | 2.174557e+00 | 1.096586e+01 | 404.28%|   3.31%
 80.5s|  1900 |  1768 |709570 | 371.4 |   171M |  37 |1563 | 986 |2301 | 314k| 10 |   0 | 548 | 2.174557e+00 | 1.096586e+01 | 404.28%|   3.36%
 84.1s|  2000 |  1858 |733011 | 364.5 |   176M |  39 |1563 | 986 |1975 | 330k|  2 |   0 | 559 | 2.174557e+00 | 1.096586e+01 | 404.28%|   3.45%
 87.6s|  2100 |  1942 |760199 | 360.1 |   180M |  43 |1563 | 986 |2260 | 345k| 10 |   0 | 574 | 2.174557e+00 | 1.096586e+01 | 404.28%|   3.63%
 90.7s|  2200 |  2024 |791471 | 357.9 |   183M |  43 |1563 | 986 |2131 | 357k|  0 |   0 | 591 | 2.174557e+00 | 1.096586e+01 | 404.28%|   3.74%
 92.3s|  2300 |  2108 |863285 | 373.6 |   183M |  43 |1563 | 986 |2311 | 358k|  0 |   0 | 591 | 2.174557e+00 | 1.096586e+01 | 404.28%|   3.74%
 94.8s|  2400 |  2178 |905873 | 375.8 |   186M |  43 |1563 | 986 |2281 | 366k|  8 |   0 | 617 | 2.174557e+00 | 1.096586e+01 | 404.28%|   3.79%
 97.7s|  2500 |  2242 |942111 | 375.2 |   191M |  43 |1563 | 986 |2448 | 377k|  0 |   0 | 649 | 2.174557e+00 | 1.096586e+01 | 404.28%|   3.94%
  100s|  2600 |  2306 |992070 | 380.0 |   192M |  43 |1563 | 986 |3068 | 384k|  0 |   0 | 656 | 2.174557e+00 | 1.096586e+01 | 404.28%|   3.96%
  102s|  2700 |  2348 |  1052k| 388.3 |   194M |  43 |1563 | 986 |2183 | 387k|  0 |   1 | 662 | 2.174557e+00 | 1.096586e+01 | 404.28%|   4.00%
  104s|  2800 |  2376 |  1119k| 398.4 |   195M |  43 |1563 | 986 |2241 | 388k|  1 |   1 | 662 | 2.174557e+00 | 1.096586e+01 | 404.28%|   4.00%
  106s|  2900 |  2436 |  1153k| 396.3 |   197M |  43 |1563 | 986 |2012 | 399k|  2 |   1 | 677 | 2.174557e+00 | 1.096586e+01 | 404.28%|   4.11%
  110s|  3000 |  2512 |  1177k| 391.3 |   201M |  43 |1563 | 986 |2213 | 413k|  9 |   1 | 706 | 2.174557e+00 | 1.096586e+01 | 404.28%|   4.31%
  112s|  3100 |  2580 |  1219k| 392.0 |   203M |  43 |1563 | 986 |2172 | 422k|  3 |   2 | 722 | 2.174557e+00 | 1.096586e+01 | 404.28%|   4.35%
  115s|  3200 |  2654 |  1247k| 388.5 |   208M |  43 |1563 | 986 |2366 | 434k|  0 |   2 | 736 | 2.174557e+00 | 1.096586e+01 | 404.28%|   4.47%
 time | node  | left  |LP iter|LP it/n|mem/heur|mdpt |vars |cons |rows |cuts |sepa|confs|strbr|  dualbound   | primalbound  |  gap   | compl. 
  117s|  3300 |  2730 |  1305k| 394.4 |   208M |  43 |1563 | 986 |2468 | 434k|  1 |   2 | 736 | 2.174557e+00 | 1.096586e+01 | 404.28%|   4.47%
  119s|  3400 |  2794 |  1339k| 392.7 |   212M |  43 |1563 | 986 |2169 | 444k|  2 |   2 | 768 | 2.174557e+00 | 1.096586e+01 | 404.28%|   4.63%
  123s|  3500 |  2872 |  1366k| 389.3 |   216M |  43 |1563 | 986 |2120 | 457k|  4 |   2 | 801 | 2.174557e+00 | 1.096586e+01 | 404.28%|   4.75%
  126s|  3600 |  2942 |  1399k| 387.6 |   218M |  43 |1563 | 986 |2476 | 468k|  9 |   2 | 816 | 2.174557e+00 | 1.096586e+01 | 404.28%|   4.85%
  129s|  3700 |  3004 |  1423k| 383.6 |   221M |  43 |1563 | 986 |2069 | 481k|  4 |   2 | 832 | 2.174557e+00 | 1.096586e+01 | 404.28%|   4.92%
  132s|  3800 |  3068 |  1446k| 379.6 |   224M |  43 |1563 | 986 |2114 | 493k|  2 |   2 | 848 | 2.174557e+00 | 1.096586e+01 | 404.28%|   4.99%
  135s|  3900 |  3138 |  1473k| 376.8 |   230M |  43 |1563 | 986 |2067 | 506k|  2 |   2 | 857 | 2.174557e+00 | 1.096586e+01 | 404.28%|   5.16%
  138s|  4000 |  3194 |  1496k| 373.2 |   233M |  43 |1563 | 986 |2390 | 519k|  9 |   3 | 866 | 2.174557e+00 | 1.096586e+01 | 404.28%|   5.39%
  140s|  4100 |  3258 |  1522k| 370.4 |   235M |  43 |1563 | 986 |2453 | 530k|  0 |   3 | 869 | 2.174557e+00 | 1.096586e+01 | 404.28%|   5.48%
  143s|  4200 |  3318 |  1555k| 369.3 |   239M |  43 |1563 | 986 |2324 | 539k| 10 |   3 | 879 | 2.174557e+00 | 1.096586e+01 | 404.28%|   5.52%
  145s|  4300 |  3344 |  1600k| 371.2 |   240M |  44 |1563 | 986 |2279 | 543k| 11 |   3 | 881 | 2.174557e+00 | 1.096586e+01 | 404.28%|   5.60%
  148s|  4400 |  3408 |  1622k| 367.8 |   243M |  44 |1563 | 986 |2190 | 555k|  9 |   3 | 890 | 2.174557e+00 | 1.096586e+01 | 404.28%|   5.90%
  151s|  4500 |  3466 |  1652k| 366.2 |   244M |  47 |1563 | 986 |2081 | 565k|  2 |   3 | 898 | 2.174557e+00 | 1.096586e+01 | 404.28%|   5.96%
  153s|  4600 |  3512 |  1678k| 364.0 |   247M |  48 |1563 | 986 |2075 | 574k|  2 |   3 | 901 | 2.174557e+00 | 1.096586e+01 | 404.28%|   6.17%
  156s|  4700 |  3574 |  1701k| 361.1 |   250M |  48 |1563 | 986 |2332 | 587k| 10 |   3 | 907 | 2.174557e+00 | 1.096586e+01 | 404.28%|   6.26%
 time | node  | left  |LP iter|LP it/n|mem/heur|mdpt |vars |cons |rows |cuts |sepa|confs|strbr|  dualbound   | primalbound  |  gap   | compl. 
  159s|  4800 |  3630 |  1731k| 359.8 |   252M |  48 |1563 | 986 |2391 | 595k|  2 |   3 | 907 | 2.174557e+00 | 1.096586e+01 | 404.28%|   6.38%
  162s|  4900 |  3690 |  1765k| 359.4 |   255M |  49 |1563 | 986 |2187 | 606k|  2 |   3 | 922 | 2.174557e+00 | 1.096586e+01 | 404.28%|   6.48%
  165s|  5000 |  3758 |  1786k| 356.4 |   263M |  52 |1563 | 986 |2199 | 621k| 11 |   3 | 929 | 2.174557e+00 | 1.096586e+01 | 404.28%|   6.74%
  168s|  5100 |  3800 |  1827k| 357.5 |   265M |  53 |1563 | 986 |2262 | 627k|  0 |   3 | 932 | 2.174557e+00 | 1.096586e+01 | 404.28%|   6.75%
  170s|  5200 |  3842 |  1867k| 358.4 |   265M |  54 |1563 | 986 |2223 | 631k| 10 |   3 | 936 | 2.174557e+00 | 1.096586e+01 | 404.28%|   6.75%
  172s|  5300 |  3876 |  1906k| 359.0 |   266M |  54 |1563 | 986 |2237 | 638k|  1 |   3 | 941 | 2.174557e+00 | 1.096586e+01 | 404.28%|   6.81%
  175s|  5400 |  3922 |  1949k| 360.2 |   267M |  54 |1563 | 986 |2112 | 644k|  2 |   3 | 948 | 2.174557e+00 | 1.096586e+01 | 404.28%|   6.82%
  178s|  5500 |  3996 |  1973k| 358.1 |   270M |  54 |1563 | 986 |2133 | 658k|  2 |   3 | 953 | 2.174557e+00 | 1.096586e+01 | 404.28%|   6.94%
  180s|  5600 |  4038 |  2003k| 357.1 |   271M |  54 |1563 | 986 |2184 | 665k|  8 |   3 | 958 | 2.174557e+00 | 1.096586e+01 | 404.28%|   6.96%
  183s|  5700 |  4108 |  2023k| 354.2 |   274M |  54 |1563 | 986 |2197 | 677k| 10 |   3 | 963 | 2.174557e+00 | 1.096586e+01 | 404.28%|   6.97%
  186s|  5800 |  4168 |  2040k| 351.2 |   278M |  54 |1563 | 986 |2162 | 688k|  2 |   3 | 973 | 2.174557e+00 | 1.096586e+01 | 404.28%|   7.11%
  188s|  5900 |  4230 |  2077k| 351.4 |   281M |  54 |1563 | 986 |2318 | 697k|  0 |   3 | 978 | 2.174557e+00 | 1.096586e+01 | 404.28%|   7.14%
  190s|  6000 |  4252 |  2128k| 354.1 |   282M |  54 |1563 | 986 |2402 | 699k|  0 |   3 | 978 | 2.174557e+00 | 1.096586e+01 | 404.28%|   7.14%
  192s|  6100 |  4292 |  2164k| 354.1 |   284M |  54 |1563 | 986 |2509 | 707k|  2 |   3 | 987 | 2.174557e+00 | 1.096586e+01 | 404.28%|   7.21%
  194s|  6200 |  4334 |  2187k| 352.1 |   287M |  54 |1563 | 986 |2232 | 717k|  5 |   3 | 995 | 2.174557e+00 | 1.096586e+01 | 404.28%|   7.28%
 time | node  | left  |LP iter|LP it/n|mem/heur|mdpt |vars |cons |rows |cuts |sepa|confs|strbr|  dualbound   | primalbound  |  gap   | compl. 
  197s|  6300 |  4382 |  2211k| 350.4 |   288M |  54 |1563 | 986 |2063 | 728k|  2 |   3 | 999 | 2.174557e+00 | 1.096586e+01 | 404.28%|   7.34%
  199s|  6400 |  4406 |  2251k| 351.2 |   290M |  54 |1563 | 986 |2394 | 731k|  0 |   3 |1000 | 2.174557e+00 | 1.096586e+01 | 404.28%|   7.35%
  199s|  6500 |  4422 |  2289k| 351.6 |   290M |  54 |1563 | 986 |2452 | 731k|  0 |   3 |1000 | 2.174557e+00 | 1.096586e+01 | 404.28%|   7.35%
  202s|  6600 |  4460 |  2315k| 350.3 |   291M |  54 |1563 | 986 |2313 | 740k| 12 |   3 |1017 | 2.174557e+00 | 1.096586e+01 | 404.28%|   7.37%
  204s|  6700 |  4496 |  2340k| 348.7 |   294M |  54 |1563 | 986 |2486 | 749k|  0 |   3 |1027 | 2.174557e+00 | 1.096586e+01 | 404.28%|   7.41%
  207s|  6800 |  4544 |  2360k| 346.5 |   298M |  54 |1563 | 986 |2290 | 758k| 10 |   3 |1041 | 2.174557e+00 | 1.096586e+01 | 404.28%|   7.52%
  210s|  6900 |  4604 |  2396k| 346.8 |   300M |  54 |1563 | 986 |2153 | 769k| 10 |   3 |1044 | 2.174557e+00 | 1.096586e+01 | 404.28%|   7.59%
  213s|  7000 |  4664 |  2417k| 344.9 |   303M |  54 |1563 | 986 |3535 | 780k|  0 |   3 |1049 | 2.174557e+00 | 1.096586e+01 | 404.28%|   7.61%
  215s|  7100 |  4716 |  2437k| 342.7 |   305M |  54 |1563 | 986 |2162 | 790k|  1 |   4 |1054 | 2.174557e+00 | 1.096586e+01 | 404.28%|   7.65%
  218s|  7200 |  4778 |  2466k| 342.0 |   306M |  54 |1563 | 986 |2284 | 799k|  2 |   4 |1056 | 2.174557e+00 | 1.096586e+01 | 404.28%|   7.74%
  220s|  7300 |  4814 |  2492k| 340.9 |   308M |  54 |1563 | 986 |2452 | 807k|  9 |   4 |1062 | 2.174557e+00 | 1.096586e+01 | 404.28%|   7.78%
  224s|  7400 |  4864 |  2514k| 339.3 |   310M |  54 |1563 | 986 |1893 | 817k|  3 |   4 |1064 | 2.174557e+00 | 1.096586e+01 | 404.28%|   7.85%
  226s|  7500 |  4892 |  2557k| 340.5 |   311M |  54 |1563 | 986 |2128 | 823k|  4 |   4 |1067 | 2.174557e+00 | 1.096586e+01 | 404.28%|   7.86%
  227s|  7600 |  4924 |  2615k| 343.6 |   315M |  54 |1563 | 986 |2257 | 826k| 11 |   4 |1072 | 2.174557e+00 | 1.096586e+01 | 404.28%|   7.87%
  230s|  7700 |  4952 |  2648k| 343.4 |   315M |  54 |1563 | 986 |2380 | 834k| 12 |   4 |1080 | 2.174557e+00 | 1.096586e+01 | 404.28%|   7.90%
 time | node  | left  |LP iter|LP it/n|mem/heur|mdpt |vars |cons |rows |cuts |sepa|confs|strbr|  dualbound   | primalbound  |  gap   | compl. 
  232s|  7800 |  5010 |  2689k| 344.3 |   317M |  54 |1563 | 986 |2506 | 839k|  0 |   4 |1084 | 2.174557e+00 | 1.096586e+01 | 404.28%|   7.93%
  234s|  7900 |  5054 |  2723k| 344.3 |   319M |  54 |1563 | 986 |2379 | 847k|  7 |   4 |1089 | 2.174557e+00 | 1.096586e+01 | 404.28%|   8.16%
  236s|  8000 |  5102 |  2769k| 345.7 |   321M |  54 |1563 | 986 |2147 | 854k|  4 |   4 |1093 | 2.174557e+00 | 1.096586e+01 | 404.28%|   8.33%
  239s|  8100 |  5140 |  2798k| 345.1 |   322M |  59 |1563 | 986 |2311 | 863k|  3 |   4 |1100 | 2.174557e+00 | 1.096586e+01 | 404.28%|   8.37%
  241s|  8200 |  5180 |  2825k| 344.1 |   324M |  59 |1563 | 986 |2323 | 870k|  0 |   4 |1108 | 2.174557e+00 | 1.096586e+01 | 404.28%|   8.38%
  243s|  8300 |  5232 |  2869k| 345.2 |   325M |  59 |1563 | 986 |2312 | 873k|  2 |   4 |1112 | 2.174557e+00 | 1.096586e+01 | 404.28%|   8.53%
  245s|  8400 |  5274 |  2936k| 349.0 |   326M |  59 |1563 | 986 |2082 | 876k|  2 |   4 |1112 | 2.174557e+00 | 1.096586e+01 | 404.28%|   8.53%
  246s|  8500 |  5322 |  2971k| 349.1 |   330M |  59 |1563 | 986 |2713 | 882k|  0 |   4 |1117 | 2.174557e+00 | 1.096586e+01 | 404.28%|   8.54%
  248s|  8600 |  5346 |  2994k| 347.7 |   330M |  59 |1563 | 986 |2270 | 890k|  4 |   5 |1131 | 2.174557e+00 | 1.096586e+01 | 404.28%|   8.57%
  251s|  8700 |  5386 |  3022k| 346.9 |   334M |  59 |1563 | 986 |3430 | 900k|  0 |   5 |1139 | 2.174557e+00 | 1.096586e+01 | 404.28%|   8.65%
  253s|  8800 |  5416 |  3085k| 350.2 |   334M |  59 |1563 | 986 |   0 | 902k|  0 |   5 |1139 | 2.174557e+00 | 1.096586e+01 | 404.28%|   8.65%
  255s|  8900 |  5456 |  3106k| 348.6 |   335M |  59 |1563 | 986 |2513 | 912k|  0 |   5 |1150 | 2.174557e+00 | 1.096586e+01 | 404.28%|   8.68%
  257s|  9000 |  5496 |  3146k| 349.2 |   338M |  59 |1563 | 986 |2203 | 916k|  3 |   5 |1152 | 2.174557e+00 | 1.096586e+01 | 404.28%|   8.69%
  260s|  9100 |  5542 |  3165k| 347.4 |   340M |  59 |1563 | 986 |2351 | 927k|  1 |   5 |1161 | 2.174557e+00 | 1.096586e+01 | 404.28%|   8.71%
  261s|  9200 |  5570 |  3206k| 348.1 |   341M |  65 |1563 | 986 |2497 | 931k|  3 |   6 |1162 | 2.174557e+00 | 1.096586e+01 | 404.28%|   8.71%
 time | node  | left  |LP iter|LP it/n|mem/heur|mdpt |vars |cons |rows |cuts |sepa|confs|strbr|  dualbound   | primalbound  |  gap   | compl. 
  264s|  9300 |  5606 |  3223k| 346.2 |   342M |  66 |1563 | 986 |2414 | 941k|  9 |   7 |1175 | 2.174557e+00 | 1.096586e+01 | 404.28%|   8.86%
  266s|  9400 |  5648 |  3243k| 344.6 |   344M |  66 |1563 | 986 |2132 | 952k|  3 |   7 |1195 | 2.174557e+00 | 1.096586e+01 | 404.28%|   8.92%
  268s|  9500 |  5680 |  3274k| 344.3 |   344M |  66 |1563 | 986 |2440 | 957k|  7 |   7 |1198 | 2.174557e+00 | 1.096586e+01 | 404.28%|   8.95%
  270s|  9600 |  5726 |  3312k| 344.6 |   345M |  66 |1563 | 986 |2445 | 961k|  0 |   7 |1198 | 2.174557e+00 | 1.096586e+01 | 404.28%|   9.03%
  271s|  9700 |  5756 |  3350k| 345.0 |   347M |  66 |1563 | 986 |2205 | 964k| 10 |   7 |1200 | 2.174557e+00 | 1.096586e+01 | 404.28%|   9.05%
  273s|  9800 |  5792 |  3390k| 345.5 |   347M |  66 |1563 | 986 |2378 | 968k|  0 |   7 |1207 | 2.174557e+00 | 1.096586e+01 | 404.28%|   9.06%
  275s|  9900 |  5818 |  3453k| 348.4 |   348M |  66 |1563 | 986 |2375 | 970k|  0 |   7 |1207 | 2.174557e+00 | 1.096586e+01 | 404.28%|   9.06%
  276s| 10000 |  5832 |  3510k| 350.6 |   348M |  66 |1563 | 986 |3797 | 973k|  0 |   7 |1208 | 2.174557e+00 | 1.096586e+01 | 404.28%|   9.08%
  277s| 10100 |  5846 |  3558k| 351.9 |   348M |  66 |1563 | 986 |2747 | 975k|  2 |   7 |1208 | 2.174557e+00 | 1.096586e+01 | 404.28%|   9.08%
  280s| 10200 |  5876 |  3584k| 351.0 |   350M |  66 |1563 | 986 |2149 | 982k|  2 |   8 |1218 | 2.174557e+00 | 1.096586e+01 | 404.28%|   9.09%
  282s| 10300 |  5914 |  3602k| 349.4 |   351M |  66 |1563 | 986 |2315 | 991k|  7 |   9 |1228 | 2.174557e+00 | 1.096586e+01 | 404.28%|   9.16%
  284s| 10400 |  5942 |  3634k| 349.1 |   353M |  66 |1563 | 986 |2396 | 996k|  2 |   9 |1230 | 2.174557e+00 | 1.096586e+01 | 404.28%|   9.17%
  286s| 10500 |  5966 |  3658k| 348.1 |   353M |  66 |1563 | 986 |2366 |1003k|  9 |  11 |1239 | 2.174557e+00 | 1.096586e+01 | 404.28%|   9.20%
  287s| 10600 |  6008 |  3690k| 347.8 |   353M |  66 |1563 | 986 |   0 |1008k|  0 |  12 |1243 | 2.174557e+00 | 1.096586e+01 | 404.28%|   9.23%
  288s| 10700 |  6042 |  3735k| 348.7 |   354M |  66 |1563 | 986 |   0 |1008k|  0 |  12 |1243 | 2.174557e+00 | 1.096586e+01 | 404.28%|   9.23%
 time | node  | left  |LP iter|LP it/n|mem/heur|mdpt |vars |cons |rows |cuts |sepa|confs|strbr|  dualbound   | primalbound  |  gap   | compl. 
  289s| 10800 |  6076 |  3779k| 349.6 |   354M |  66 |1563 | 986 |2478 |1009k|  0 |  12 |1243 | 2.174557e+00 | 1.096586e+01 | 404.28%|   9.23%
  291s| 10900 |  6100 |  3814k| 349.6 |   356M |  72 |1563 | 986 |2226 |1013k|  2 |  12 |1251 | 2.174557e+00 | 1.096586e+01 | 404.28%|   9.24%
  292s| 11000 |  6134 |  3857k| 350.3 |   356M |  73 |1563 | 986 |2343 |1014k|  0 |  12 |1252 | 2.174557e+00 | 1.096586e+01 | 404.28%|   9.24%
  294s| 11100 |  6158 |  3886k| 349.8 |   358M |  73 |1563 | 986 |4671 |1020k|  2 |  12 |1259 | 2.174557e+00 | 1.096586e+01 | 404.28%|   9.26%
  295s| 11200 |  6180 |  3929k| 350.5 |   358M |  73 |1563 | 986 |2398 |1024k|  0 |  12 |1260 | 2.174557e+00 | 1.096586e+01 | 404.28%|   9.29%
  297s| 11300 |  6192 |  3965k| 350.6 |   360M |  73 |1563 | 986 |2451 |1028k|  9 |  12 |1267 | 2.174557e+00 | 1.096586e+01 | 404.28%|   9.30%
  299s| 11400 |  6222 |  4031k| 353.3 |   361M |  73 |1563 | 986 |2140 |1031k|  4 |  12 |1272 | 2.174557e+00 | 1.096586e+01 | 404.28%|   9.32%

SCIP Status        : solving was interrupted [time limit reached]
Solving Time (sec) : 300.00
Solving Nodes      : 11464
Primal Bound       : +1.09658570350398e+01 (13 solutions)
Dual Bound         : +2.17455654692155e+00
Gap                : 404.28 %


--- Reading solution for model GAMS_MODEL
***
*** Solver did not provide marginals for model GAMS_MODEL
***
--- Executing after solve: elapsed 0:05:00.317
--- model.gms(3301) 4 Mb
--- model.gms(4810) 6 Mb
--- Putfile results /local/scratch/a/sgusev/repos/k_means/data/gams_scip_gdp.hull/no_mode/2026-02-16_02-49-57/original/results.dat
--- Putfile statresults /local/scratch/a/sgusev/repos/k_means/data/gams_scip_gdp.hull/no_mode/2026-02-16_02-49-57/original/resultsstat.dat
*** Status: Normal completion
--- Job model.gms Stop 02/16/26 02:54:58 elapsed 0:05:00.320
Original problem solved. Time taken: 300.9294378757477 seconds
Original objective value: 10.96585703503987
